QPLIB_2819
LCQ
minimize
334 # number of variables
156 # number of constraints
0.0 # default value for linear coefficients in objective
48 # number of non-default linear coefficients in objective
1 1.0
2 1.0
3 1.0
4 1.0
5 1.0
6 1.0
7 1.0
8 1.0
9 1.0
10 1.0
11 1.0
12 1.0
13 1.0
14 1.0
15 1.0
16 1.0
17 1.0
18 1.0
19 1.0
20 1.0
21 1.0
22 1.0
23 1.0
24 1.0
25 1.0
26 1.0
27 1.0
28 1.0
29 1.0
30 1.0
31 1.0
32 1.0
33 1.0
34 1.0
35 1.0
36 1.0
37 1.0
38 1.0
39 1.0
40 1.0
41 1.0
42 1.0
43 1.0
44 1.0
45 1.0
46 1.0
47 1.0
48 1.0
0.0 # objective constant
900 # number of quadratic terms in all constraints
25 49 1 2.0
25 49 1 -2.0
25 49 1 -2.0
25 49 1 -2.0
25 49 1 -2.0
25 49 1 -2.0
25 49 1 -2.0
25 49 1 -2.0
25 49 1 -2.0
25 49 1 -2.0
25 49 1 -2.0
26 1 1 2.0
26 1 1 -2.0
26 1 1 -2.0
26 1 1 -2.0
26 1 1 -2.0
26 1 1 -2.0
26 1 1 -2.0
26 1 1 -2.0
26 1 1 -2.0
26 1 1 -2.0
26 1 1 -2.0
27 50 33 2.0
27 50 33 -2.0
27 50 33 -2.0
27 50 33 -2.0
27 50 33 -2.0
27 50 33 -2.0
27 50 33 -2.0
27 50 33 -2.0
27 50 33 -2.0
27 50 33 -2.0
27 50 33 -2.0
28 1 1 2.0
28 1 1 -2.0
28 1 1 -2.0
28 1 1 -2.0
28 1 1 -2.0
28 1 1 -2.0
28 1 1 -2.0
28 1 1 -2.0
28 1 1 -2.0
28 1 1 -2.0
28 1 1 -2.0
29 1920287498 1651076121 2.0
29 1920287498 1651076121 -2.0
29 1920287498 1651076121 -2.0
29 1920287498 1651076121 -2.0
29 1920287498 1651076121 -2.0
29 1920287498 1651076121 -2.0
29 1920287498 1651076121 -2.0
29 1920287498 1651076121 -2.0
29 1920287498 1651076121 -2.0
29 1920287498 1651076121 -2.0
29 1920287498 1651076121 -2.0
30 1986817876 1668834403 2.0
30 1986817876 1668834403 -2.0
30 1986817876 1668834403 -2.0
30 1986817876 1668834403 -2.0
30 1986817876 1668834403 -2.0
30 1986817876 1668834403 -2.0
30 1986817876 1668834403 -2.0
30 1986817876 1668834403 -2.0
30 1986817876 1668834403 -2.0
30 1986817876 1668834403 -2.0
30 1986817876 1668834403 -2.0
31 1651076196 -1232637338 2.0
31 1651076196 -1232637338 -2.0
31 1651076196 -1232637338 -2.0
31 1651076196 -1232637338 -2.0
31 1651076196 -1232637338 -2.0
31 1651076196 -1232637338 -2.0
31 1651076196 -1232637338 -2.0
31 1651076196 -1232637338 -2.0
31 1651076196 -1232637338 -2.0
31 1651076196 -1232637338 -2.0
31 1651076196 -1232637338 -2.0
32 1932407863 32639 2.0
32 1932407863 32639 -2.0
32 1932407863 32639 -2.0
32 1932407863 32639 -2.0
32 1932407863 32639 -2.0
32 1932407863 32639 -2.0
32 1932407863 32639 -2.0
32 1932407863 32639 -2.0
32 1932407863 32639 -2.0
32 1932407863 32639 -2.0
32 1932407863 32639 -2.0
33 1684152432 12282961 2.0
33 1684152432 12282961 -2.0
33 1684152432 12282961 -2.0
33 1684152432 12282961 -2.0
33 1684152432 12282961 -2.0
33 1684152432 12282961 -2.0
33 1684152432 12282961 -2.0
33 1684152432 12282961 -2.0
33 1684152432 12282961 -2.0
33 1684152432 12282961 -2.0
33 1684152432 12282961 -2.0
34 540156025 1 2.0
34 540156025 1 -2.0
34 540156025 1 -2.0
34 540156025 1 -2.0
34 540156025 1 -2.0
34 540156025 1 -2.0
34 540156025 1 -2.0
34 540156025 1 -2.0
34 540156025 1 -2.0
34 540156025 1 -2.0
34 540156025 1 -2.0
35 1163218737 130 2.0
35 1163218737 130 -2.0
35 1163218737 130 -2.0
35 1163218737 130 -2.0
35 1163218737 130 -2.0
35 1163218737 130 -2.0
35 1163218737 130 -2.0
35 1163218737 130 -2.0
35 1163218737 130 -2.0
35 1163218737 130 -2.0
35 1163218737 130 -2.0
36 541412943 1 2.0
36 541412943 1 -2.0
36 541412943 1 -2.0
36 541412943 1 -2.0
36 541412943 1 -2.0
36 541412943 1 -2.0
36 541412943 1 -2.0
36 541412943 1 -2.0
36 541412943 1 -2.0
36 541412943 1 -2.0
36 541412943 1 -2.0
37 540094770 -1256557343 2.0
37 540094770 -1256557343 -2.0
37 540094770 -1256557343 -2.0
37 540094770 -1256557343 -2.0
37 540094770 -1256557343 -2.0
37 540094770 -1256557343 -2.0
37 540094770 -1256557343 -2.0
37 540094770 -1256557343 -2.0
37 540094770 -1256557343 -2.0
37 540094770 -1256557343 -2.0
37 540094770 -1256557343 -2.0
38 540090417 32639 2.0
38 540090417 32639 -2.0
38 540090417 32639 -2.0
38 540090417 32639 -2.0
38 540090417 32639 -2.0
38 540090417 32639 -2.0
38 540090417 32639 -2.0
38 540090417 32639 -2.0
38 540090417 32639 -2.0
38 540090417 32639 -2.0
38 540090417 32639 -2.0
39 50 2 2.0
39 50 2 -2.0
39 50 2 -2.0
39 50 2 -2.0
39 50 2 -2.0
39 50 2 -2.0
39 50 2 -2.0
39 50 2 -2.0
39 50 2 -2.0
39 50 2 -2.0
39 50 2 -2.0
40 1 1 2.0
40 1 1 -2.0
40 1 1 -2.0
40 1 1 -2.0
40 1 1 -2.0
40 1 1 -2.0
40 1 1 -2.0
40 1 1 -2.0
40 1 1 -2.0
40 1 1 -2.0
40 1 1 -2.0
41 1651076122 12282609 2.0
41 1651076122 12282609 -2.0
41 1651076122 12282609 -2.0
41 1651076122 12282609 -2.0
41 1651076122 12282609 -2.0
41 1651076122 12282609 -2.0
41 1651076122 12282609 -2.0
41 1651076122 12282609 -2.0
41 1651076122 12282609 -2.0
41 1651076122 12282609 -2.0
41 1651076122 12282609 -2.0
42 1852403556 1 2.0
42 1852403556 1 -2.0
42 1852403556 1 -2.0
42 1852403556 1 -2.0
42 1852403556 1 -2.0
42 1852403556 1 -2.0
42 1852403556 1 -2.0
42 1852403556 1 -2.0
42 1852403556 1 -2.0
42 1852403556 1 -2.0
42 1852403556 1 -2.0
43 1768711012 1 2.0
43 1768711012 1 -2.0
43 1768711012 1 -2.0
43 1768711012 1 -2.0
43 1768711012 1 -2.0
43 1768711012 1 -2.0
43 1768711012 1 -2.0
43 1768711012 1 -2.0
43 1768711012 1 -2.0
43 1768711012 1 -2.0
43 1768711012 1 -2.0
44 775173731 1 2.0
44 775173731 1 -2.0
44 775173731 1 -2.0
44 775173731 1 -2.0
44 775173731 1 -2.0
44 775173731 1 -2.0
44 775173731 1 -2.0
44 775173731 1 -2.0
44 775173731 1 -2.0
44 775173731 1 -2.0
44 775173731 1 -2.0
45 1646292852 12276289 2.0
45 1646292852 12276289 -2.0
45 1646292852 12276289 -2.0
45 1646292852 12276289 -2.0
45 1646292852 12276289 -2.0
45 1646292852 12276289 -2.0
45 1646292852 12276289 -2.0
45 1646292852 12276289 -2.0
45 1646292852 12276289 -2.0
45 1646292852 12276289 -2.0
45 1646292852 12276289 -2.0
46 824209008 1 2.0
46 824209008 1 -2.0
46 824209008 1 -2.0
46 824209008 1 -2.0
46 824209008 1 -2.0
46 824209008 1 -2.0
46 824209008 1 -2.0
46 824209008 1 -2.0
46 824209008 1 -2.0
46 824209008 1 -2.0
46 824209008 1 -2.0
47 1852125217 12282641 2.0
47 1852125217 12282641 -2.0
47 1852125217 12282641 -2.0
47 1852125217 12282641 -2.0
47 1852125217 12282641 -2.0
47 1852125217 12282641 -2.0
47 1852125217 12282641 -2.0
47 1852125217 12282641 -2.0
47 1852125217 12282641 -2.0
47 1852125217 12282641 -2.0
47 1852125217 12282641 -2.0
48 1915646838 1 2.0
48 1915646838 1 -2.0
48 1915646838 1 -2.0
48 1915646838 1 -2.0
48 1915646838 1 -2.0
48 1915646838 1 -2.0
48 1915646838 1 -2.0
48 1915646838 1 -2.0
48 1915646838 1 -2.0
48 1915646838 1 -2.0
48 1915646838 1 -2.0
49 49 1 2.0
49 49 1 -2.0
49 49 1 -2.0
49 49 1 -2.0
49 49 1 -2.0
49 49 1 -2.0
49 49 1 -2.0
49 49 1 -2.0
49 49 1 -2.0
49 49 1 -2.0
49 49 1 -2.0
50 1 1 2.0
50 1 1 -2.0
50 1 1 -2.0
50 1 1 -2.0
50 1 1 -2.0
50 1 1 -2.0
50 1 1 -2.0
50 1 1 -2.0
50 1 1 -2.0
50 1 1 -2.0
50 1 1 -2.0
51 306 1 2.0
51 306 1 -2.0
51 306 1 -2.0
51 306 1 -2.0
51 306 1 -2.0
51 306 1 -2.0
51 306 1 -2.0
51 306 1 -2.0
51 306 1 -2.0
51 306 1 -2.0
51 306 1 -2.0
52 1 1 2.0
52 1 1 -2.0
52 1 1 -2.0
52 1 1 -2.0
52 1 1 -2.0
52 1 1 -2.0
52 1 1 -2.0
52 1 1 -2.0
52 1 1 -2.0
52 1 1 -2.0
52 1 1 -2.0
53 1 -1232647015 2.0
53 1 -1232647015 -2.0
53 1 -1232647015 -2.0
53 1 -1232647015 -2.0
53 1 -1232647015 -2.0
53 1 -1232647015 -2.0
53 1 -1232647015 -2.0
53 1 -1232647015 -2.0
53 1 -1232647015 -2.0
53 1 -1232647015 -2.0
53 1 -1232647015 -2.0
54 32639 2 2.0
54 32639 2 -2.0
54 32639 2 -2.0
54 32639 2 -2.0
54 32639 2 -2.0
54 32639 2 -2.0
54 32639 2 -2.0
54 32639 2 -2.0
54 32639 2 -2.0
54 32639 2 -2.0
54 32639 2 -2.0
55 1 -1232647015 2.0
55 1 -1232647015 -2.0
55 1 -1232647015 -2.0
55 1 -1232647015 -2.0
55 1 -1232647015 -2.0
55 1 -1232647015 -2.0
55 1 -1232647015 -2.0
55 1 -1232647015 -2.0
55 1 -1232647015 -2.0
55 1 -1232647015 -2.0
55 1 -1232647015 -2.0
56 32639 1 2.0
56 32639 1 -2.0
56 32639 1 -2.0
56 32639 1 -2.0
56 32639 1 -2.0
56 32639 1 -2.0
56 32639 1 -2.0
56 32639 1 -2.0
56 32639 1 -2.0
56 32639 1 -2.0
56 32639 1 -2.0
57 2 1 2.0
57 2 1 -2.0
57 2 1 -2.0
57 2 1 -2.0
57 2 1 -2.0
57 2 1 -2.0
57 2 1 -2.0
57 2 1 -2.0
57 2 1 -2.0
57 2 1 -2.0
57 2 1 -2.0
58 2 1 2.0
58 2 1 -2.0
58 2 1 -2.0
58 2 1 -2.0
58 2 1 -2.0
58 2 1 -2.0
58 2 1 -2.0
58 2 1 -2.0
58 2 1 -2.0
58 2 1 -2.0
58 2 1 -2.0
59 1 1 2.0
59 1 1 -2.0
59 1 1 -2.0
59 1 1 -2.0
59 1 1 -2.0
59 1 1 -2.0
59 1 1 -2.0
59 1 1 -2.0
59 1 1 -2.0
59 1 1 -2.0
59 1 1 -2.0
60 1 1 2.0
60 1 1 -2.0
60 1 1 -2.0
60 1 1 -2.0
60 1 1 -2.0
60 1 1 -2.0
60 1 1 -2.0
60 1 1 -2.0
60 1 1 -2.0
60 1 1 -2.0
60 1 1 -2.0
61 124 49 2.0
61 124 49 -2.0
61 124 49 -2.0
61 124 49 -2.0
61 124 49 -2.0
61 124 49 -2.0
61 124 49 -2.0
61 124 49 -2.0
61 124 49 -2.0
61 124 49 -2.0
61 124 49 -2.0
62 1 1 2.0
62 1 1 -2.0
62 1 1 -2.0
62 1 1 -2.0
62 1 1 -2.0
62 1 1 -2.0
62 1 1 -2.0
62 1 1 -2.0
62 1 1 -2.0
62 1 1 -2.0
62 1 1 -2.0
63 -2147483648 49 2.0
63 -2147483648 49 -2.0
63 -2147483648 49 -2.0
63 -2147483648 49 -2.0
63 -2147483648 49 -2.0
63 -2147483648 49 -2.0
63 -2147483648 49 -2.0
63 -2147483648 49 -2.0
63 -2147483648 49 -2.0
63 -2147483648 49 -2.0
63 -2147483648 49 -2.0
64 256 1 2.0
64 256 1 -2.0
64 256 1 -2.0
64 256 1 -2.0
64 256 1 -2.0
64 256 1 -2.0
64 256 1 -2.0
64 256 1 -2.0
64 256 1 -2.0
64 256 1 -2.0
64 256 1 -2.0
65 1 1 2.0
65 1 1 -2.0
65 1 1 -2.0
65 1 1 -2.0
65 1 1 -2.0
65 1 1 -2.0
65 1 1 -2.0
65 1 1 -2.0
65 1 1 -2.0
65 1 1 -2.0
65 1 1 -2.0
66 1 1 2.0
66 1 1 -2.0
66 1 1 -2.0
66 1 1 -2.0
66 1 1 -2.0
66 1 1 -2.0
66 1 1 -2.0
66 1 1 -2.0
66 1 1 -2.0
66 1 1 -2.0
66 1 1 -2.0
67 34 1 2.0
67 34 1 -2.0
67 34 1 -2.0
67 34 1 -2.0
67 34 1 -2.0
67 34 1 -2.0
67 34 1 -2.0
67 34 1 -2.0
67 34 1 -2.0
67 34 1 -2.0
67 34 1 -2.0
68 1 1 2.0
68 1 1 -2.0
68 1 1 -2.0
68 1 1 -2.0
68 1 1 -2.0
68 1 1 -2.0
68 1 1 -2.0
68 1 1 -2.0
68 1 1 -2.0
68 1 1 -2.0
68 1 1 -2.0
69 1953845015 1 2.0
69 1953845015 1 -2.0
69 1953845015 1 -2.0
69 1953845015 1 -2.0
69 1953845015 1 -2.0
69 1953845015 1 -2.0
69 1953845015 1 -2.0
69 1953845015 1 -2.0
69 1953845015 1 -2.0
69 1953845015 1 -2.0
69 1953845015 1 -2.0
70 544503153 1 2.0
70 544503153 1 -2.0
70 544503153 1 -2.0
70 544503153 1 -2.0
70 544503153 1 -2.0
70 544503153 1 -2.0
70 544503153 1 -2.0
70 544503153 1 -2.0
70 544503153 1 -2.0
70 544503153 1 -2.0
70 544503153 1 -2.0
71 1701603687 1 2.0
71 1701603687 1 -2.0
71 1701603687 1 -2.0
71 1701603687 1 -2.0
71 1701603687 1 -2.0
71 1701603687 1 -2.0
71 1701603687 1 -2.0
71 1701603687 1 -2.0
71 1701603687 1 -2.0
71 1701603687 1 -2.0
71 1701603687 1 -2.0
72 1734438945 1 2.0
72 1734438945 1 -2.0
72 1734438945 1 -2.0
72 1734438945 1 -2.0
72 1734438945 1 -2.0
72 1734438945 1 -2.0
72 1734438945 1 -2.0
72 1734438945 1 -2.0
72 1734438945 1 -2.0
72 1734438945 1 -2.0
72 1734438945 1 -2.0
73 1769414758 23 2.0
73 1769414758 23 -2.0
73 1769414758 23 -2.0
73 1769414758 23 -2.0
73 1769414758 23 -2.0
73 1769414758 23 -2.0
73 1769414758 23 -2.0
73 1769414758 23 -2.0
73 1769414758 23 -2.0
73 1769414758 23 -2.0
73 1769414758 23 -2.0
74 6845541 23 2.0
74 6845541 23 -2.0
74 6845541 23 -2.0
74 6845541 23 -2.0
74 6845541 23 -2.0
74 6845541 23 -2.0
74 6845541 23 -2.0
74 6845541 23 -2.0
74 6845541 23 -2.0
74 6845541 23 -2.0
74 6845541 23 -2.0
75 210 34 2.0
75 210 34 -2.0
75 210 34 -2.0
75 210 34 -2.0
75 210 34 -2.0
75 210 34 -2.0
75 210 34 -2.0
75 210 34 -2.0
75 210 34 -2.0
75 210 34 -2.0
75 210 34 -2.0
76 1 1 2.0
76 1 1 -2.0
76 1 1 -2.0
76 1 1 -2.0
76 1 1 -2.0
76 1 1 -2.0
76 1 1 -2.0
76 1 1 -2.0
76 1 1 -2.0
76 1 1 -2.0
76 1 1 -2.0
77 1734430730 12280593 2.0
77 1734430730 12280593 -2.0
77 1734430730 12280593 -2.0
77 1734430730 12280593 -2.0
77 1734430730 12280593 -2.0
77 1734430730 12280593 -2.0
77 1734430730 12280593 -2.0
77 1734430730 12280593 -2.0
77 1734430730 12280593 -2.0
77 1734430730 12280593 -2.0
77 1734430730 12280593 -2.0
78 1684625254 1 2.0
78 1684625254 1 -2.0
78 1684625254 1 -2.0
78 1684625254 1 -2.0
78 1684625254 1 -2.0
78 1684625254 1 -2.0
78 1684625254 1 -2.0
78 1684625254 1 -2.0
78 1684625254 1 -2.0
78 1684625254 1 -2.0
78 1684625254 1 -2.0
79 12937729 -1232639883 2.0
79 12937729 -1232639883 -2.0
79 12937729 -1232639883 -2.0
79 12937729 -1232639883 -2.0
79 12937729 -1232639883 -2.0
79 12937729 -1232639883 -2.0
79 12937729 -1232639883 -2.0
79 12937729 -1232639883 -2.0
79 12937729 -1232639883 -2.0
79 12937729 -1232639883 -2.0
79 12937729 -1232639883 -2.0
80 32639 1 2.0
80 32639 1 -2.0
80 32639 1 -2.0
80 32639 1 -2.0
80 32639 1 -2.0
80 32639 1 -2.0
80 32639 1 -2.0
80 32639 1 -2.0
80 32639 1 -2.0
80 32639 1 -2.0
80 32639 1 -2.0
81 12286593 33 2.0
81 12286593 33 -2.0
81 12286593 33 -2.0
81 12286593 33 -2.0
81 12286593 33 -2.0
81 12286593 33 -2.0
81 12286593 33 -2.0
81 12286593 33 -2.0
81 12286593 33 -2.0
81 12286593 33 -2.0
81 12286593 33 -2.0
82 1 1 2.0
82 1 1 -2.0
82 1 1 -2.0
82 1 1 -2.0
82 1 1 -2.0
82 1 1 -2.0
82 1 1 -2.0
82 1 1 -2.0
82 1 1 -2.0
82 1 1 -2.0
82 1 1 -2.0
83 145 50 2.0
83 145 50 -2.0
83 145 50 -2.0
83 145 50 -2.0
83 145 50 -2.0
83 145 50 -2.0
83 145 50 -2.0
83 145 50 -2.0
83 145 50 -2.0
83 145 50 -2.0
83 145 50 -2.0
84 1 1 2.0
84 1 1 -2.0
84 1 1 -2.0
84 1 1 -2.0
84 1 1 -2.0
84 1 1 -2.0
84 1 1 -2.0
84 1 1 -2.0
84 1 1 -2.0
84 1 1 -2.0
84 1 1 -2.0
85 1734430730 12939457 -2.0
85 1734430730 12939457 -2.0
85 1734430730 12939457 -2.0
85 1734430730 12939457 -2.0
85 1734430730 12939457 -2.0
85 1734430730 12939457 -2.0
85 1734430730 12939457 -2.0
85 1734430730 12939457 -2.0
85 1734430730 12939457 -2.0
85 1734430730 12939457 -2.0
86 1684625254 1 -2.0
86 1684625254 1 -2.0
86 1684625254 1 -2.0
86 1684625254 1 -2.0
86 1684625254 1 -2.0
86 1684625254 1 -2.0
86 1684625254 1 -2.0
86 1684625254 1 -2.0
86 1684625254 1 -2.0
86 1684625254 1 -2.0
87 -1232639883 -1232647143 -2.0
87 -1232639883 -1232647143 -2.0
87 -1232639883 -1232647143 -2.0
87 -1232639883 -1232647143 -2.0
87 -1232639883 -1232647143 -2.0
87 -1232639883 -1232647143 -2.0
87 -1232639883 -1232647143 -2.0
87 -1232639883 -1232647143 -2.0
87 -1232639883 -1232647143 -2.0
87 -1232639883 -1232647143 -2.0
88 32639 32639 -2.0
88 32639 32639 -2.0
88 32639 32639 -2.0
88 32639 32639 -2.0
88 32639 32639 -2.0
88 32639 32639 -2.0
88 32639 32639 -2.0
88 32639 32639 -2.0
88 32639 32639 -2.0
88 32639 32639 -2.0
89 12287025 1 -2.0
89 12287025 1 -2.0
89 12287025 1 -2.0
89 12287025 1 -2.0
89 12287025 1 -2.0
89 12287025 1 -2.0
89 12287025 1 -2.0
89 12287025 1 -2.0
89 12287025 1 -2.0
89 12287025 1 -2.0
90 1 1 -2.0
90 1 1 -2.0
90 1 1 -2.0
90 1 1 -2.0
90 1 1 -2.0
90 1 1 -2.0
90 1 1 -2.0
90 1 1 -2.0
90 1 1 -2.0
90 1 1 -2.0
91 12286817 1 -2.0
91 12286817 1 -2.0
91 12286817 1 -2.0
91 12286817 1 -2.0
91 12286817 1 -2.0
91 12286817 1 -2.0
91 12286817 1 -2.0
91 12286817 1 -2.0
91 12286817 1 -2.0
91 12286817 1 -2.0
92 1 1 -2.0
92 1 1 -2.0
92 1 1 -2.0
92 1 1 -2.0
92 1 1 -2.0
92 1 1 -2.0
92 1 1 -2.0
92 1 1 -2.0
92 1 1 -2.0
92 1 1 -2.0
93 177 49 -2.0
93 177 49 -2.0
93 177 49 -2.0
93 177 49 -2.0
93 177 49 -2.0
93 177 49 -2.0
93 177 49 -2.0
93 177 49 -2.0
93 177 49 -2.0
93 177 49 -2.0
94 1 1 -2.0
94 1 1 -2.0
94 1 1 -2.0
94 1 1 -2.0
94 1 1 -2.0
94 1 1 -2.0
94 1 1 -2.0
94 1 1 -2.0
94 1 1 -2.0
94 1 1 -2.0
95 49 34 -2.0
95 49 34 -2.0
95 49 34 -2.0
95 49 34 -2.0
95 49 34 -2.0
95 49 34 -2.0
95 49 34 -2.0
95 49 34 -2.0
95 49 34 -2.0
95 49 34 -2.0
96 1 1 -2.0
96 1 1 -2.0
96 1 1 -2.0
96 1 1 -2.0
96 1 1 -2.0
96 1 1 -2.0
96 1 1 -2.0
96 1 1 -2.0
96 1 1 -2.0
96 1 1 -2.0
97 1818576901 1 2.0
97 1818576901 1 -2.0
98 32625 1 2.0
98 32625 1 -2.0
99 1 -1232647303 2.0
99 1 -1232647303 -2.0
100 32639 1 2.0
100 32639 1 -2.0
101 1 1 2.0
101 1 1 -2.0
102 1 1 2.0
102 1 1 -2.0
103 130 1 2.0
103 130 1 -2.0
104 1 1 2.0
104 1 1 -2.0
105 1 -1256557343 2.0
105 1 -1256557343 -2.0
106 32639 1 2.0
106 32639 1 -2.0
107 82 2 2.0
107 82 2 -2.0
108 1 1 2.0
108 1 1 -2.0
109 12299153 12282881 2.0
109 12299153 12282881 -2.0
110 1 1 2.0
110 1 1 -2.0
111 1 -1232647303 2.0
111 1 -1232647303 -2.0
112 32639 1 2.0
112 32639 1 -2.0
113 12276289 1 2.0
113 12276289 1 -2.0
114 1 1 2.0
114 1 1 -2.0
115 12282929 1 2.0
115 12282929 1 -2.0
116 1 1 2.0
116 1 1 -2.0
117 12280609 1 2.0
117 12280609 1 -2.0
118 1 1 2.0
118 1 1 -2.0
119 34 1 2.0
119 34 1 -2.0
120 1 1 2.0
120 1 1 -2.0
121 1 -1232647303 2.0
121 1 -1232647303 -2.0
122 32639 2 2.0
122 32639 2 -2.0
123 12325601 1 2.0
123 12325601 1 -2.0
124 1 1 2.0
124 1 1 -2.0
125 305 2 2.0
125 305 2 -2.0
126 2 1 2.0
126 2 1 -2.0
127 113 1 2.0
127 113 1 -2.0
128 1 1 2.0
128 1 1 -2.0
129 2 -1256557983 2.0
129 2 -1256557983 -2.0
130 32639 1 2.0
130 32639 1 -2.0
131 -2147483648 1 2.0
131 -2147483648 1 -2.0
132 101012 1 2.0
132 101012 1 -2.0
133 1 1 2.0
133 1 1 -2.0
134 1 1 2.0
134 1 1 -2.0
135 50 1 2.0
135 50 1 -2.0
136 1 1 2.0
136 1 1 -2.0
137 1818838555 12276289 2.0
137 1818838555 12276289 -2.0
138 2037653606 1 2.0
138 2037653606 1 -2.0
139 1864394097 12279841 2.0
139 1864394097 12279841 -2.0
140 1668489319 1 2.0
140 1668489319 1 -2.0
141 1668571507 1 2.0
141 1668571507 1 -2.0
142 1768300649 1 2.0
142 1768300649 1 -2.0
143 7562605 1 2.0
143 7562605 1 -2.0
144 1 1 2.0
144 1 1 -2.0
145 538976289 1 2.0
145 538976289 1 -2.0
146 824188961 1 2.0
146 824188961 1 -2.0
147 34 1 2.0
147 34 1 -2.0
148 10 1 2.0
148 10 1 -2.0
149 1735147788 1 2.0
149 1735147788 1 -2.0
150 1701603655 1 2.0
150 1701603655 1 -2.0
151 1701869909 1 2.0
151 1701869909 1 -2.0
152 32639 1027 2.0
152 32639 1027 -2.0
153 12280321 1 2.0
153 12280321 1 -2.0
154 1 1 2.0
154 1 1 -2.0
155 34 34 2.0
155 34 34 -2.0
156 1 1 2.0
156 1 1 -2.0
728 # number of linear terms in all constraints
1 1 -1.0
1 13 -1.0
1 25 -1.0
1 37 -1.0
1 169 1.0
1 170 -1.0
1 171 -1.0
1 172 -1.0
1 173 -1.0
1 174 -1.0
1 175 -1.0
1 176 -1.0
1 177 -1.0
1 178 -1.0
1 179 -1.0
1 180 -1.0
1 181 -1.0
2 2 -1.0
2 14 -1.0
2 26 -1.0
2 38 -1.0
2 182 1.0
2 183 -1.0
2 184 -1.0
2 185 -1.0
2 186 -1.0
2 187 -1.0
2 188 -1.0
2 189 -1.0
2 190 -1.0
2 191 -1.0
2 192 -1.0
2 193 -1.0
2 194 -1.0
3 3 -1.0
3 15 -1.0
3 27 -1.0
3 39 -1.0
3 195 1.0
3 196 -1.0
3 197 -1.0
3 198 -1.0
3 199 -1.0
3 200 -1.0
3 201 -1.0
3 202 -1.0
3 203 -1.0
3 204 -1.0
3 205 -1.0
3 206 -1.0
3 207 -1.0
4 4 -1.0
4 16 -1.0
4 28 -1.0
4 40 -1.0
4 208 1.0
4 209 -1.0
4 210 -1.0
4 211 -1.0
4 212 -1.0
4 213 -1.0
4 214 -1.0
4 215 -1.0
4 216 -1.0
4 217 -1.0
4 218 -1.0
4 219 -1.0
4 220 -1.0
5 5 -1.0
5 17 -1.0
5 29 -1.0
5 41 -1.0
5 221 1.0
5 222 -1.0
5 223 -1.0
5 224 -1.0
5 225 -1.0
5 226 -1.0
5 227 -1.0
5 228 -1.0
5 229 -1.0
5 230 -1.0
5 231 -1.0
5 232 -1.0
5 233 -1.0
6 6 -1.0
6 18 -1.0
6 30 -1.0
6 42 -1.0
6 234 1.0
6 235 -1.0
6 236 -1.0
6 237 -1.0
6 238 -1.0
6 239 -1.0
6 240 -1.0
6 241 -1.0
6 242 -1.0
6 243 -1.0
6 244 -1.0
6 245 -1.0
6 246 -1.0
7 7 -1.0
7 19 -1.0
7 31 -1.0
7 43 -1.0
7 247 1.0
7 248 -1.0
7 249 -1.0
7 250 -1.0
7 251 -1.0
7 252 -1.0
7 253 -1.0
7 254 -1.0
7 255 -1.0
7 256 -1.0
7 257 -1.0
7 258 -1.0
7 259 -1.0
8 8 -1.0
8 20 -1.0
8 32 -1.0
8 44 -1.0
8 260 1.0
8 261 -1.0
8 262 -1.0
8 263 -1.0
8 264 -1.0
8 265 -1.0
8 266 -1.0
8 267 -1.0
8 268 -1.0
8 269 -1.0
8 270 -1.0
8 271 -1.0
8 272 -1.0
9 9 -1.0
9 21 -1.0
9 33 -1.0
9 45 -1.0
9 273 1.0
9 274 -1.0
9 275 -1.0
9 276 -1.0
9 277 -1.0
9 278 -1.0
9 279 -1.0
9 280 -1.0
9 281 -1.0
9 282 -1.0
9 283 -1.0
9 284 -1.0
9 285 -1.0
10 10 -1.0
10 22 -1.0
10 34 -1.0
10 46 -1.0
10 286 1.0
10 287 -1.0
10 288 -1.0
10 289 -1.0
10 290 -1.0
10 291 -1.0
10 292 -1.0
10 293 -1.0
10 294 -1.0
10 295 -1.0
10 296 -1.0
10 297 -1.0
10 298 -1.0
11 11 -1.0
11 23 -1.0
11 35 -1.0
11 47 -1.0
11 299 -1.0
11 300 -1.0
11 301 -1.0
11 302 -1.0
11 303 -1.0
11 304 -1.0
11 305 -1.0
11 306 -1.0
11 307 -1.0
11 308 -1.0
11 309 -1.0
11 310 -1.0
12 12 -1.0
12 24 -1.0
12 36 -1.0
12 48 -1.0
12 311 -1.0
12 312 -1.0
12 313 -1.0
12 314 -1.0
12 315 -1.0
12 316 -1.0
12 317 -1.0
12 318 -1.0
12 319 -1.0
12 320 -1.0
12 321 -1.0
12 322 -1.0
13 169 1.0
13 170 -1.0
13 183 -1.0
13 196 -1.0
13 209 -1.0
13 222 -1.0
13 235 -1.0
13 248 -1.0
13 261 -1.0
13 274 -1.0
13 287 -1.0
13 299 -1.0
13 311 -1.0
13 323 -1.0
14 171 -1.0
14 182 1.0
14 184 -1.0
14 197 -1.0
14 210 -1.0
14 223 -1.0
14 236 -1.0
14 249 -1.0
14 262 -1.0
14 275 -1.0
14 288 -1.0
14 300 -1.0
14 312 -1.0
14 324 -1.0
15 172 -1.0
15 185 -1.0
15 195 1.0
15 198 -1.0
15 211 -1.0
15 224 -1.0
15 237 -1.0
15 250 -1.0
15 263 -1.0
15 276 -1.0
15 289 -1.0
15 301 -1.0
15 313 -1.0
15 325 -1.0
16 173 -1.0
16 186 -1.0
16 199 -1.0
16 208 1.0
16 212 -1.0
16 225 -1.0
16 238 -1.0
16 251 -1.0
16 264 -1.0
16 277 -1.0
16 290 -1.0
16 302 -1.0
16 314 -1.0
16 326 -1.0
17 174 -1.0
17 187 -1.0
17 200 -1.0
17 213 -1.0
17 221 1.0
17 226 -1.0
17 239 -1.0
17 252 -1.0
17 265 -1.0
17 278 -1.0
17 291 -1.0
17 303 -1.0
17 315 -1.0
17 327 -1.0
18 175 -1.0
18 188 -1.0
18 201 -1.0
18 214 -1.0
18 227 -1.0
18 234 1.0
18 240 -1.0
18 253 -1.0
18 266 -1.0
18 279 -1.0
18 292 -1.0
18 304 -1.0
18 316 -1.0
18 328 -1.0
19 176 -1.0
19 189 -1.0
19 202 -1.0
19 215 -1.0
19 228 -1.0
19 241 -1.0
19 247 1.0
19 254 -1.0
19 267 -1.0
19 280 -1.0
19 293 -1.0
19 305 -1.0
19 317 -1.0
19 329 -1.0
20 177 -1.0
20 190 -1.0
20 203 -1.0
20 216 -1.0
20 229 -1.0
20 242 -1.0
20 255 -1.0
20 260 1.0
20 268 -1.0
20 281 -1.0
20 294 -1.0
20 306 -1.0
20 318 -1.0
20 330 -1.0
21 178 -1.0
21 191 -1.0
21 204 -1.0
21 217 -1.0
21 230 -1.0
21 243 -1.0
21 256 -1.0
21 269 -1.0
21 273 1.0
21 282 -1.0
21 295 -1.0
21 307 -1.0
21 319 -1.0
21 331 -1.0
22 179 -1.0
22 192 -1.0
22 205 -1.0
22 218 -1.0
22 231 -1.0
22 244 -1.0
22 257 -1.0
22 270 -1.0
22 283 -1.0
22 286 1.0
22 296 -1.0
22 308 -1.0
22 320 -1.0
22 332 -1.0
23 180 -1.0
23 193 -1.0
23 206 -1.0
23 219 -1.0
23 232 -1.0
23 245 -1.0
23 258 -1.0
23 271 -1.0
23 284 -1.0
23 297 -1.0
23 309 -1.0
23 321 -1.0
23 333 -1.0
24 181 -1.0
24 194 -1.0
24 207 -1.0
24 220 -1.0
24 233 -1.0
24 246 -1.0
24 259 -1.0
24 272 -1.0
24 285 -1.0
24 298 -1.0
24 310 -1.0
24 322 -1.0
24 334 -1.0
25 1 -3.0
25 13 -4.0
25 37 -4.0
25 180 -1000.0
25 181 -120.0
26 1 -5.0
26 13 -6.0
26 25 -3.0
26 37 -1.0
26 180 -110.0
26 181 -150.0
27 13 -2.0
27 25 -2.0
27 37 -2.0
27 180 -360.0
27 181 -400.0
28 1 -8.0
28 25 -7.0
28 37 -3.0
28 180 -60.0
28 181 -115.0
29 13 -2.0
29 37 -2.0
29 180 -678.0
29 181 -170.0
30 1 -4.0
30 25 -2.0
30 37 -8.0
30 180 -50.0
30 181 -75.0
31 2 -3.0
31 14 -4.0
31 38 -4.0
31 193 -1000.0
31 194 -120.0
32 2 -5.0
32 14 -6.0
32 26 -3.0
32 38 -1.0
32 193 -110.0
32 194 -150.0
33 14 -2.0
33 26 -2.0
33 38 -2.0
33 193 -360.0
33 194 -400.0
34 2 -8.0
34 26 -7.0
34 38 -3.0
34 193 -60.0
34 194 -115.0
35 14 -2.0
35 38 -2.0
35 193 -678.0
35 194 -170.0
36 2 -4.0
36 26 -2.0
36 38 -8.0
36 193 -50.0
36 194 -75.0
37 3 -3.0
37 15 -4.0
37 39 -4.0
37 206 -1000.0
37 207 -120.0
38 3 -5.0
38 15 -6.0
38 27 -3.0
38 39 -1.0
38 206 -110.0
38 207 -150.0
39 15 -2.0
39 27 -2.0
39 39 -2.0
39 206 -360.0
39 207 -400.0
40 3 -8.0
40 27 -7.0
40 39 -3.0
40 206 -60.0
40 207 -115.0
41 15 -2.0
41 39 -2.0
41 206 -678.0
41 207 -170.0
42 3 -4.0
42 27 -2.0
42 39 -8.0
42 206 -50.0
42 207 -75.0
43 4 -3.0
43 16 -4.0
43 40 -4.0
43 219 -1000.0
43 220 -120.0
44 4 -5.0
44 16 -6.0
44 28 -3.0
44 40 -1.0
44 219 -110.0
44 220 -150.0
45 16 -2.0
45 28 -2.0
45 40 -2.0
45 219 -360.0
45 220 -400.0
46 4 -8.0
46 28 -7.0
46 40 -3.0
46 219 -60.0
46 220 -115.0
47 16 -2.0
47 40 -2.0
47 219 -678.0
47 220 -170.0
48 4 -4.0
48 28 -2.0
48 40 -8.0
48 219 -50.0
48 220 -75.0
49 5 -3.0
49 17 -4.0
49 41 -4.0
49 232 -1000.0
49 233 -120.0
50 5 -5.0
50 17 -6.0
50 29 -3.0
50 41 -1.0
50 232 -110.0
50 233 -150.0
51 17 -2.0
51 29 -2.0
51 41 -2.0
51 232 -360.0
51 233 -400.0
52 5 -8.0
52 29 -7.0
52 41 -3.0
52 232 -60.0
52 233 -115.0
53 17 -2.0
53 41 -2.0
53 232 -678.0
53 233 -170.0
54 5 -4.0
54 29 -2.0
54 41 -8.0
54 232 -50.0
54 233 -75.0
55 6 -3.0
55 18 -4.0
55 42 -4.0
55 245 -1000.0
55 246 -120.0
56 6 -5.0
56 18 -6.0
56 30 -3.0
56 42 -1.0
56 245 -110.0
56 246 -150.0
57 18 -2.0
57 30 -2.0
57 42 -2.0
57 245 -360.0
57 246 -400.0
58 6 -8.0
58 30 -7.0
58 42 -3.0
58 245 -60.0
58 246 -115.0
59 18 -2.0
59 42 -2.0
59 245 -678.0
59 246 -170.0
60 6 -4.0
60 30 -2.0
60 42 -8.0
60 245 -50.0
60 246 -75.0
61 7 -3.0
61 19 -4.0
61 43 -4.0
61 258 -1000.0
61 259 -120.0
62 7 -5.0
62 19 -6.0
62 31 -3.0
62 43 -1.0
62 258 -110.0
62 259 -150.0
63 19 -2.0
63 31 -2.0
63 43 -2.0
63 258 -360.0
63 259 -400.0
64 7 -8.0
64 31 -7.0
64 43 -3.0
64 258 -60.0
64 259 -115.0
65 19 -2.0
65 43 -2.0
65 258 -678.0
65 259 -170.0
66 7 -4.0
66 31 -2.0
66 43 -8.0
66 258 -50.0
66 259 -75.0
67 8 -3.0
67 20 -4.0
67 44 -4.0
67 271 -1000.0
67 272 -120.0
68 8 -5.0
68 20 -6.0
68 32 -3.0
68 44 -1.0
68 271 -110.0
68 272 -150.0
69 20 -2.0
69 32 -2.0
69 44 -2.0
69 271 -360.0
69 272 -400.0
70 8 -8.0
70 32 -7.0
70 44 -3.0
70 271 -60.0
70 272 -115.0
71 20 -2.0
71 44 -2.0
71 271 -678.0
71 272 -170.0
72 8 -4.0
72 32 -2.0
72 44 -8.0
72 271 -50.0
72 272 -75.0
73 9 -3.0
73 21 -4.0
73 45 -4.0
73 284 -1000.0
73 285 -120.0
74 9 -5.0
74 21 -6.0
74 33 -3.0
74 45 -1.0
74 284 -110.0
74 285 -150.0
75 21 -2.0
75 33 -2.0
75 45 -2.0
75 284 -360.0
75 285 -400.0
76 9 -8.0
76 33 -7.0
76 45 -3.0
76 284 -60.0
76 285 -115.0
77 21 -2.0
77 45 -2.0
77 284 -678.0
77 285 -170.0
78 9 -4.0
78 33 -2.0
78 45 -8.0
78 284 -50.0
78 285 -75.0
79 10 -3.0
79 22 -4.0
79 46 -4.0
79 297 -1000.0
79 298 -120.0
80 10 -5.0
80 22 -6.0
80 34 -3.0
80 46 -1.0
80 297 -110.0
80 298 -150.0
81 22 -2.0
81 34 -2.0
81 46 -2.0
81 297 -360.0
81 298 -400.0
82 10 -8.0
82 34 -7.0
82 46 -3.0
82 297 -60.0
82 298 -115.0
83 22 -2.0
83 46 -2.0
83 297 -678.0
83 298 -170.0
84 10 -4.0
84 34 -2.0
84 46 -8.0
84 297 -50.0
84 298 -75.0
85 11 -3.0
85 23 -4.0
85 47 -4.0
85 309 -1000.0
85 310 -120.0
86 11 -5.0
86 23 -6.0
86 35 -3.0
86 47 -1.0
86 309 -110.0
86 310 -150.0
87 23 -2.0
87 35 -2.0
87 47 -2.0
87 309 -360.0
87 310 -400.0
88 11 -8.0
88 35 -7.0
88 47 -3.0
88 309 -60.0
88 310 -115.0
89 23 -2.0
89 47 -2.0
89 309 -678.0
89 310 -170.0
90 11 -4.0
90 35 -2.0
90 47 -8.0
90 309 -50.0
90 310 -75.0
91 12 -3.0
91 24 -4.0
91 48 -4.0
91 321 -1000.0
91 322 -120.0
92 12 -5.0
92 24 -6.0
92 36 -3.0
92 48 -1.0
92 321 -110.0
92 322 -150.0
93 24 -2.0
93 36 -2.0
93 48 -2.0
93 321 -360.0
93 322 -400.0
94 12 -8.0
94 36 -7.0
94 48 -3.0
94 321 -60.0
94 322 -115.0
95 24 -2.0
95 48 -2.0
95 321 -678.0
95 322 -170.0
96 12 -4.0
96 36 -2.0
96 48 -8.0
96 321 -50.0
96 322 -75.0
1.79769313486232E+308 # value for infinity
0.0 # default left-hand-side value
75 # number of non-default left-hand-sides
11 -185.0
12 -95.0
23 -185.0
24 -95.0
85 -64750.0
86 -8880.0
87 -48100.0
88 -3885.0
89 -51430.0
90 -2220.0
91 -1900.0
92 -4750.0
93 -9500.0
94 -2850.0
95 -6650.0
96 -1900.0
97 -3196.0
98 -11832.0
99 -8364.0
100 -136.0
101 -5712.0
102 -3400.0
103 -9250.0
104 -7030.0
105 -4070.0
106 -184556.0
107 -1924.0
108 -7252.0
109 -10080.0
110 -4914.0
111 -46242.0
112 -5418.0
113 -16506.0
114 -4284.0
115 -2376.0
116 -30096.0
117 -26840.0
118 -35904.0
119 -11880.0
120 -18568.0
121 -50000.0
122 -351200.0
123 -14000.0
124 -3500.0
125 -15800.0
126 -7800.0
127 -4400.0
128 -5500.0
129 -8250.0
130 -3300.0
131 -4400.0
132 -3300.0
133 -2300.0
134 -3800.0
135 -4100.0
136 -20000.0
137 -12600.0
138 -1300.0
139 -2600.0
140 -1820.0
141 -260000.0
142 -2600.0
143 -8944.0
144 -19600.0
145 -29400.0
146 -19600.0
147 -2646.0
148 -12740.0
149 -66248.0
150 -34500.0
151 -4025.0
152 -9775.0
153 -3450.0
154 -62790.0
155 -62560.0
0.0 # default right-hand-side value
75 # number of non-default right-hand-sides
11 -185.0
12 -95.0
23 -185.0
24 -95.0
85 1.79769313486232E+308
86 1.79769313486232E+308
87 1.79769313486232E+308
88 1.79769313486232E+308
89 1.79769313486232E+308
90 1.79769313486232E+308
91 1.79769313486232E+308
92 1.79769313486232E+308
93 1.79769313486232E+308
94 1.79769313486232E+308
95 1.79769313486232E+308
96 1.79769313486232E+308
97 -3196.0
98 -11832.0
99 -8364.0
100 -136.0
101 -5712.0
102 -3400.0
103 -9250.0
104 -7030.0
105 -4070.0
106 -184556.0
107 -1924.0
108 -7252.0
109 -10080.0
110 -4914.0
111 -46242.0
112 -5418.0
113 -16506.0
114 -4284.0
115 -2376.0
116 -30096.0
117 -26840.0
118 -35904.0
119 -11880.0
120 -18568.0
121 -50000.0
122 -351200.0
123 -14000.0
124 -3500.0
125 -15800.0
126 -7800.0
127 -4400.0
128 -5500.0
129 -8250.0
130 -3300.0
131 -4400.0
132 -3300.0
133 -2300.0
134 -3800.0
135 -4100.0
136 -20000.0
137 -12600.0
138 -1300.0
139 -2600.0
140 -1820.0
141 -260000.0
142 -2600.0
143 -8944.0
144 -19600.0
145 -29400.0
146 -19600.0
147 -2646.0
148 -12740.0
149 -66248.0
150 -34500.0
151 -4025.0
152 -9775.0
153 -3450.0
154 -62790.0
155 -62560.0
0.0 # default variable lower bound value
0 # number of non-default variable lower bounds
100000.0 # default variable upper bound value
130 # number of non-default variable upper bounds
49 45.0
50 52.0
51 189.0
52 33.0
53 210.0
54 24.0
55 120.0
56 30.0
57 30.0
58 12234.0
59 98.0
60 656.0
61 142.0
62 420.0
63 200.0
64 13.0
65 637.0
66 24.0
67 20.0
68 25.0
69 15.0
70 25.0
71 454.0
72 256.0
73 350.0
74 48.0
75 260.0
76 21.0
77 278.0
78 12.0
79 20.0
80 50.0
81 100.0
82 30.0
83 70.0
84 20.0
85 45.0
86 52.0
87 189.0
88 33.0
89 210.0
90 24.0
91 120.0
92 30.0
93 30.0
94 12234.0
95 98.0
96 656.0
97 142.0
98 420.0
99 200.0
100 13.0
101 637.0
102 24.0
103 20.0
104 25.0
105 15.0
106 25.0
107 454.0
108 256.0
109 139.0
110 400.0
111 435.0
112 37.0
113 378.0
114 124.0
115 245.0
116 125.0
117 85.0
118 14728.0
119 124.0
120 754.0
121 222.0
122 459.0
123 567.0
124 56.0
125 768.0
126 58.0
127 47.0
128 367.0
129 320.0
130 433.0
131 589.0
132 467.0
133 850.0
134 3560.0
135 400.0
136 56.0
137 436.0
138 90.0
139 100.0
140 150.0
141 250.0
142 90.0
143 150.0
144 80.0
145 68.0
146 90.0
147 230.0
148 33.0
149 410.0
150 150.0
151 170.0
152 130.0
153 100.0
154 22234.0
155 198.0
156 1000.0
157 342.0
158 720.0
159 400.0
160 40.0
161 767.0
162 700.0
163 320.0
164 60.0
165 100.0
166 55.0
167 1000.0
168 800.0
169 34.0
182 74.0
195 126.0
208 88.0
221 100.0
234 55.0
247 100.0
260 26.0
273 98.0
286 115.0
0.0 # default variable primal value in starting point
0 # number of non-default variable primal values in starting point
0.0 # default constraint dual value in starting point
0 # number of non-default constraint dual values in starting point
0.0 # default variable bound dual value in starting point
0 # number of non-default variable bound dual values in starting point
0 # number of non-default variable names
0 # number of non-default constraint names
